&FORCE_EVAL
   METHOD Quickstep
   STRESS_TENSOR ANALYTICAL
   &DFT
     BASIS_SET_FILE_NAME  OVERWRITE
     POTENTIAL_FILE_NAME  OVERWRITE
     MULTIPLICITY  1
     &SCF
       MAX_SCF  25
       EPS_SCF  1.0E-06
       SCF_GUESS  RESTART
       &OT
         MINIMIZER DIIS
         PRECONDITIONER FULL_SINGLE_INVERSE
       &END OT
       &OUTER_SCF  T
         MAX_SCF  25
         EPS_SCF  1.0E-06
       &END OUTER_SCF
     &END SCF
     &QS
       METHOD  GPW
     &END QS
     &MGRID
       CUTOFF [Ry]  400
       COMMENSURATE TRUE
       NGRIDS  5
     &END MGRID
     &XC
       &XC_FUNCTIONAL  PBE
       &END XC_FUNCTIONAL
       &VDW_POTENTIAL
         POTENTIAL_TYPE  PAIR_POTENTIAL
         &PAIR_POTENTIAL
           TYPE  DFTD3(BJ)
           PARAMETER_FILE_NAME  OVERWRITE
           REFERENCE_FUNCTIONAL PBE
           R_CUTOFF  25
         &END PAIR_POTENTIAL
       &END VDW_POTENTIAL
     &END XC
   &END DFT
   &SUBSYS
     &KIND                         Cd
       ELEMENT                     Cd
       BASIS_SET                   TZVP-MOLOPT-PBE-GTH-q12
       POTENTIAL                   GTH-PBE-q12
     &END KIND
     &KIND                         Zn
       ELEMENT                     Zn
       BASIS_SET                   TZVP-MOLOPT-PBE-GTH-q12
       POTENTIAL                   GTH-PBE-q12
     &END KIND
     &KIND                         Cs 
       ELEMENT                     Cs
       BASIS_SET                   TZVP-MOLOPT-PBE-GTH-q9
       POTENTIAL                   GTH-PBE-q9
     &END KIND
     &KIND                         Pb
       ELEMENT                     Pb 
       BASIS_SET                   TZVP-MOLOPT-PBE-GTH-q4
       POTENTIAL                   GTH-PBE-q4
     &END KIND 
     &KIND                         I
       ELEMENT                     I 
       BASIS_SET                   TZVP-MOLOPT-PBE-GTH-q7
       POTENTIAL                   GTH-PBE-q7
     &END KIND 
   &END SUBSYS
 &END FORCE_EVAL
